ALGO = Fast
EDIFF = 0.0002
ENCUT = 520
IBRION = 2
ISIF = 3
ISMEAR = 0
ISPIN = 2
LASPH = True
LORBIT = 11
LREAL = Auto
LWAVE = False
MAGMOM = 4*0.6
NELM = 100
NSW = 0
PREC = Accurate
SIGMA = 0.05
LCHARGE = True
LORBIT = 11
