pymatgen with grid density = 1507 / number of atoms
0
Gamma
10 10 3
