&control
    calculation='scf',
    title='sb4te3',
    restart_mode='from_scratch',
    prefix='sb4te3',
    nstep = 100,
    tstress=.TRUE.,
    tprnfor=.TRUE.,
    etot_conv_thr=1.5d-4,
    pseudo_dir='./',
    outdir='./temp',
    verbosity='high',
/
&system   
    ibrav=0,  
    celldm(1)=8.07933507,
    nat=42, ntyp=2,
    ecutwfc = 50.0,  
    ecutrho=250.0,
    occupations='smearing'
    smearing='marzari-vanderbilt',
    degauss=0.005,
    noncolin=.TRUE., 
    lspinorb=.TRUE.,
    vdw_corr = 'dft-d3',
/
&electrons
    electron_maxstep=100,
    conv_thr=1.D-8, 
    mixing_beta=0.4d0, 
/
&ions
      ion_dynamics = 'bfgs',
/
&CELL
    cell_dynamics  = 'bfgs',
    press          = 0.0,
    press_conv_thr = 0.5,
    cell_dofree = 'ibrav+2Dxy'
/
ATOMIC_SPECIES
 Sb 121.76 Sb.upf 
 Te 127.60 Te.upf                 
ATOMIC_POSITIONS {angstrom}
Sb            2.1731514982        1.2546696023        1.1362429042
Sb           -0.0000000000        2.5093389800       80.7274746055
Sb           -0.0000000000        2.5093392046       28.4243207480
Sb            0.0000000000       -0.0000000000       26.1513324251
Sb            0.0000000000        0.0000000000       55.7123873722
Sb            2.1731513030        1.2546694905       53.4393990492
Sb            0.0000000000        0.0000000000        2.6676241323
Sb           -0.0000000000       -0.0000000000       79.1960932256
Sb            2.1731514982        1.2546696023       29.9557223156
Sb            2.1731514982        1.2546696023       24.6198933543
Sb           -0.0000000000        2.5093392046       57.2438264430
Sb           -0.0000000000        2.5093392046       51.9079974817
Sb            2.1731514982        1.2546696023        6.7459618366
Sb           -0.0000000000        2.5093389800       75.1177549110
Sb           -0.0000000000        2.5093392046       34.0343854288
Sb            0.0000000000        0.0000000000       20.5409216951
Sb           -0.0000000000       -0.0000000000       61.3227981022
Sb            2.1731513030        1.2546694905       47.8293319291
Sb           -0.0000000000        2.5093392046       10.6381363315
Sb            2.1731513030        1.2546694905       71.2255798068
Sb            0.0000000000        0.0000000000       37.9259638830
Sb           -0.0000000000        2.5093389800       16.6482737612
Sb            2.1731514982        1.2546696023       65.2154411574
Sb           -0.0000000000       -0.0000000000       43.9377534749
Te            0.0000001291        2.5093392046        5.0411228122
Te            2.1731513030        1.2546694905       76.8225957655
Te            0.0000000000        0.0000000000       32.3295977826
Te           -0.0000001291        2.5093389800       22.2452837828
Te            2.1731514982        1.2546696023       59.6184335742
Te           -0.0000000000       -0.0000000000       49.5341171360
Te            0.0000000000        0.0000000000        8.6778369199
Te           -0.0000000000       -0.0000000000       73.1858816577
Te            2.1731514982        1.2546696023       35.9665027795
Te            2.1731514982        1.2546696023       18.6097152458
Te           -0.0000000000        2.5093392046       63.2540021112
Te           -0.0000000000        2.5093392046       45.8972121391
Te            2.1731514332        1.2546697141       12.3182156940
Te           -0.0000000000        2.5093389800       69.5454992236
Te           -0.0000000000        2.5093392046       39.6053898988
Te           -0.0000000000        0.0000000000       14.9676654337
Te            0.0000000000       -0.0000000000       66.8960507046
Te            2.1731513681        1.2546693777       42.2583274592
K_POINTS {automatic} 
10 10 2 0 0 0 
CELL_PARAMETERS {alat}
   1.016583876  -0.000000000   0.000000000
  -0.508291938   0.880387461   0.000000000
  -0.000000000  -0.000000000  19.147615979
